282,277
600,566
560,494
611,503
695,494
823,452
894,514
1081,610
1155,481
1101,406
966,314
672,434
560,494
491,780
586,593
742,791
524,891
382,818
536,511
196,563
282,277
225,258
406,131
427,152
681,226
1101,406
1095,341
858,378
894,514
857,648
830,700
491,780
536,511
575,460
677,377
681,226
677,377
625,51
764,150
427,152
307,216
611,503
654,491
753,458
663,524
695,494
801,406
966,314
823,452
857,648
